
Log started (V11.0.0) Wed May 14 15:24:37 2008

Tried aggregator 1 time.
Reduced MIP has 140 rows, 4001 columns, and 8040 nonzeros.
Presolve time =    0.03 sec.
Clique table members: 100.
MIP emphasis: balance optimality and feasibility.
MIP search method: dynamic search.
Parallel mode: none, using 1 thread.
Root relaxation solution time =    0.11 sec.

        Nodes                                         Cuts/
   Node  Left     Objective  IInf  Best Integer     Best Node    ItCnt     Gap

*     0+    0                         4854.0000       60.3089      463   98.76%
*     0+    0                          100.0000       60.3089      463   39.69%
      0     0       61.0000    65      100.0000      Fract: 4      481   39.00%
*     0+    0                           99.0000       61.0000      481   38.38%
      0     0       61.4547    74       99.0000       Cuts: 7      611   37.92%
*     0+    0                           90.0000       61.4547      611   31.72%
      0     0       66.5065    64       90.0000      Cuts: 33      824   26.10%
*     0+    0                           85.0000       66.5065      824   21.76%
      0     0       67.0274    70       85.0000      Cuts: 14      879   21.14%
*     0+    0                           79.0000       67.0274      879   15.16%
      0     0       67.5464    60       79.0000       Cuts: 8      903   14.50%
      0     0       67.5569    68       79.0000       Cuts: 6      918   14.48%
      0     0       67.7110    61       79.0000    MIRcuts: 2      928   14.29%
*     0+    0                           76.0000       67.7110      928   10.91%
      0     0       67.7110    63       76.0000       Cuts: 2      931   10.91%
      0     0       68.0773    57       76.0000       Cuts: 6      951   10.42%
      0     0       68.5579    65       76.0000    MIRcuts: 7     1001    9.79%
      0     0       68.8440    56       76.0000       Cuts: 8     1016    9.42%
*     0+    0                           75.0000       68.8440     1016    8.21%
      0     0       68.9990    55       75.0000       Cuts: 5     1032    8.00%
      0     0       69.1825    59       75.0000       Cuts: 4     1060    7.76%
*     0+    0                           74.0000       69.1825     1060    6.51%
      0     0       69.3759    54       74.0000       Cuts: 4     1091    6.25%
      0     0       69.3759    64       74.0000    MIRcuts: 2     1097    6.25%
*     0+    0                           73.0000       69.3759     1097    4.96%

Repeating presolve.
Tried aggregator 1 time.
MIP Presolve eliminated 9 rows and 1505 columns.
MIP Presolve modified 1022 coefficients.
Reduced MIP has 131 rows, 2496 columns, and 5021 nonzeros.
Tried aggregator 1 time.
Represolve time =    0.14 sec.
Clique table members: 263.
MIP emphasis: balance optimality and feasibility.
MIP search method: dynamic search.
Parallel mode: none, using 1 thread.
Root relaxation solution time =    0.06 sec.

        Nodes                                         Cuts/
   Node  Left     Objective  IInf  Best Integer     Best Node    ItCnt     Gap

      0     0       70.0567    71       73.0000       70.0567      513    4.03%
      0     2       70.0567    71       73.0000       70.0567      513    4.03%
*    10+    9                           72.0000       70.4318      553    2.18%
    100    27    infeasible             72.0000       71.0000     7625    1.39%

Cover cuts applied:  24
Mixed integer rounding cuts applied:  33
Zero-half cuts applied:  1

Solution pool: 11 solutions saved.

MIP - Integer optimal solution:  Objective = 7.2000000000e+001
Solution time =    3.36 sec.  Iterations = 12054  Nodes = 128


Incumbent solution
Variable Name           Solution Value
Cmax                         72.000000
X_1_23                        1.000000
X_2_14                        1.000000
X_3_14                        1.000000
X_4_28                        1.000000
X_5_37                        1.000000
X_6_32                        1.000000
X_7_17                        1.000000
X_8_14                        1.000000
X_9_23                        1.000000
X_10_31                       1.000000
X_11_33                       1.000000
X_12_23                       1.000000
X_13_17                       1.000000
X_14_2                        1.000000
X_15_19                       1.000000
X_16_27                       1.000000
X_17_38                       1.000000
X_18_14                       1.000000
X_19_2                        1.000000
X_20_40                       1.000000
X_21_23                       1.000000
X_22_23                       1.000000
X_23_38                       1.000000
X_24_23                       1.000000
X_25_3                        1.000000
X_26_17                       1.000000
X_27_20                       1.000000
X_28_32                       1.000000
X_29_14                       1.000000
X_30_17                       1.000000
X_31_27                       1.000000
X_32_14                       1.000000
X_33_14                       1.000000
X_34_35                       1.000000
X_35_18                       1.000000
X_36_27                       1.000000
X_37_37                       1.000000
X_38_33                       1.000000
X_39_14                       1.000000
X_40_10                       1.000000
X_41_14                       1.000000
X_42_23                       1.000000
X_43_19                       1.000000
X_44_13                       1.000000
X_45_14                       1.000000
X_46_17                       1.000000
X_47_18                       1.000000
X_48_14                       1.000000
X_49_23                       1.000000
X_50_23                       1.000000
X_51_14                       1.000000
X_52_19                       1.000000
X_53_32                       1.000000
X_54_17                       1.000000
X_55_34                       1.000000
X_56_23                       1.000000
X_57_5                        1.000000
X_58_36                       1.000000
X_59_18                       1.000000
X_60_39                       1.000000
X_61_29                       1.000000
X_62_22                       1.000000
X_63_14                       1.000000
X_64_17                       1.000000
X_65_22                       1.000000
X_66_37                       1.000000
X_67_30                       1.000000
X_68_23                       1.000000
X_69_36                       1.000000
X_70_37                       1.000000
X_71_19                       1.000000
X_72_12                       1.000000
X_73_32                       1.000000
X_74_37                       1.000000
X_75_2                        1.000000
X_76_14                       1.000000
X_77_13                       1.000000
X_78_33                       1.000000
X_79_17                       1.000000
X_80_1                        1.000000
X_81_9                        1.000000
X_82_3                        1.000000
X_83_37                       1.000000
X_84_26                       1.000000
X_85_32                       1.000000
X_86_2                        1.000000
X_87_32                       1.000000
X_88_14                       1.000000
X_89_17                       1.000000
X_90_19                       1.000000
X_91_17                       1.000000
X_92_27                       1.000000
X_93_2                        1.000000
X_94_2                        1.000000
X_95_17                       1.000000
X_96_2                        1.000000
X_97_14                       1.000000
X_98_13                       1.000000
X_99_13                       1.000000
X_100_21                      1.000000
All other variables in the range 1-4001 are 0.
